NAME          ClpDefau  FREE
ROWS
 N  OBJROW
 L  ZMUNI1_PCT
 L  ZMUNI2_PCT
 L  ZMUNI3_PCT
 L  ZMUNI4_PCT
 L  ZMUNI5_PCT
 L  ZMUNI6_PCT
 L  ZMUNI7_PCT
 L  ZMUNI8_PCT
 L  ZMUNI9_PCT
COLUMNS
    QMUNI1 OBJROW 1.          
    QMUNI1 ZMUNI1_PCT 28485.6796  
    QMUNI1 ZMUNI2_PCT 1817.3218   
    QMUNI1 ZMUNI3_PCT 4242.897    
    QMUNI1 ZMUNI4_PCT 3051.71012  
    QMUNI1 ZMUNI5_PCT  -51.1169   
    QMUNI1 ZMUNI6_PCT 174.6178    
    QMUNI1 ZMUNI7_PCT 1667.4041   
    QMUNI1 ZMUNI8_PCT 1368.1412   
    QMUNI1 ZMUNI9_PCT 557.3273    
    QMUNI2 OBJROW 1.          
    QMUNI2 ZMUNI1_PCT 1453.3043   
    QMUNI2 ZMUNI2_PCT 33333.683   
    QMUNI2 ZMUNI3_PCT 2280.8075   
    QMUNI2 ZMUNI4_PCT 2440.66715  
    QMUNI2 ZMUNI5_PCT  -508.3084  
    QMUNI2 ZMUNI6_PCT  -436.1152  
    QMUNI2 ZMUNI7_PCT 385.4751    
    QMUNI2 ZMUNI8_PCT 671.5775    
    QMUNI2 ZMUNI9_PCT 569.9158    
    QMUNI3 OBJROW 1.          
    QMUNI3 ZMUNI1_PCT 3946.3997   
    QMUNI3 ZMUNI2_PCT 2467.7277   
    QMUNI3 ZMUNI3_PCT 29728.6987  
    QMUNI3 ZMUNI4_PCT 4829.00142  
    QMUNI3 ZMUNI5_PCT  -343.132   
    QMUNI3 ZMUNI6_PCT  -162.1246  
    QMUNI3 ZMUNI7_PCT 1226.4251   
    QMUNI3 ZMUNI8_PCT 1188.6597   
    QMUNI3 ZMUNI9_PCT 510.5972    
    QMUNI4 OBJROW 1.          
    QMUNI4 ZMUNI1_PCT 3465.6525   
    QMUNI4 ZMUNI2_PCT 3217.1249   
    QMUNI4 ZMUNI3_PCT 5670.9289   
    QMUNI4 ZMUNI4_PCT 103165.34042
    QMUNI4 ZMUNI5_PCT  -60.5583   
    QMUNI4 ZMUNI6_PCT 136.5662    
    QMUNI4 ZMUNI7_PCT 1509.2849   
    QMUNI4 ZMUNI8_PCT 1541.3285   
    QMUNI4 ZMUNI9_PCT 1074.2188   
    QMUNI5 OBJROW 1.          
    QMUNI5 ZMUNI1_PCT  -47.1115   
    QMUNI5 ZMUNI2_PCT  -67.5201   
    QMUNI5 ZMUNI3_PCT  -67.3294   
    QMUNI5 ZMUNI4_PCT  -52.97661  
    QMUNI5 ZMUNI5_PCT 33042.717   
    QMUNI5 ZMUNI6_PCT 2094.1735   
    QMUNI5 ZMUNI7_PCT  -237.6557  
    QMUNI5 ZMUNI8_PCT  -277.5192  
    QMUNI5 ZMUNI9_PCT  -286.6745  
    QMUNI6 OBJROW 1.          
    QMUNI6 ZMUNI1_PCT 234.127     
    QMUNI6 ZMUNI2_PCT 45.7764     
    QMUNI6 ZMUNI3_PCT 151.062     
    QMUNI6 ZMUNI4_PCT 101.25637   
    QMUNI6 ZMUNI5_PCT 2722.4541   
    QMUNI6 ZMUNI6_PCT 31731.5102  
    QMUNI6 ZMUNI7_PCT 346.3745    
    QMUNI6 ZMUNI8_PCT 133.133     
    QMUNI6 ZMUNI9_PCT  -11.8255   
    QMUNI7 OBJROW 1.          
    QMUNI7 ZMUNI1_PCT 1331.1386   
    QMUNI7 ZMUNI2_PCT 726.1276    
    QMUNI7 ZMUNI3_PCT 1152.42     
    QMUNI7 ZMUNI4_PCT 847.64957   
    QMUNI7 ZMUNI5_PCT 48.9235     
    QMUNI7 ZMUNI6_PCT 258.8273    
    QMUNI7 ZMUNI7_PCT 28690.7196  
    QMUNI7 ZMUNI8_PCT 2135.6583   
    QMUNI7 ZMUNI9_PCT 517.6544    
    QMUNI8 OBJROW 1.          
    QMUNI8 ZMUNI1_PCT 1045.3224   
    QMUNI8 ZMUNI2_PCT 904.274     
    QMUNI8 ZMUNI3_PCT 1080.3222   
    QMUNI8 ZMUNI4_PCT 853.25241   
    QMUNI8 ZMUNI5_PCT  -129.0321  
    QMUNI8 ZMUNI6_PCT  -42.1524   
    QMUNI8 ZMUNI7_PCT 1939.0106   
    QMUNI8 ZMUNI8_PCT 26977.3484  
    QMUNI8 ZMUNI9_PCT 884.819     
    QMUNI9 OBJROW 1.          
    QMUNI9 ZMUNI1_PCT 260.8299    
    QMUNI9 ZMUNI2_PCT 582.1228    
    QMUNI9 ZMUNI3_PCT 365.8294    
    QMUNI9 ZMUNI4_PCT 313.61579   
    QMUNI9 ZMUNI5_PCT  -163.8412  
    QMUNI9 ZMUNI6_PCT  -126.0757  
    QMUNI9 ZMUNI7_PCT 325.5844    
    QMUNI9 ZMUNI8_PCT 805.0919    
    QMUNI9 ZMUNI9_PCT 25158.6914  
RHS
    RHS ZMUNI1_PCT 2.5113225566
    RHS ZMUNI2_PCT 1.1946021291
    RHS ZMUNI3_PCT 0.7235971176
    RHS ZMUNI4_PCT  -1.43937414
    RHS ZMUNI5_PCT 0.4771669249
    RHS ZMUNI6_PCT 1.5048638336
    RHS ZMUNI7_PCT  -0.81852721
    RHS ZMUNI8_PCT  -0.63012402
    RHS ZMUNI9_PCT  -0.16797659
BOUNDS
 LO BOUND QMUNI1 -0.000947477
 UP BOUND QMUNI1      1.1e+10
 LO BOUND QMUNI2 -0.00068825 
 UP BOUND QMUNI2      1.1e+10
 LO BOUND QMUNI3 -0.000728396
 UP BOUND QMUNI3      1.1e+10
 LO BOUND QMUNI4 -0.000312904
 UP BOUND QMUNI4      1.1e+10
 LO BOUND QMUNI5 -0.000552184
 UP BOUND QMUNI5      1.1e+10
 LO BOUND QMUNI6 -0.000700057
 UP BOUND QMUNI6      1.1e+10
 LO BOUND QMUNI7 -0.000376699
 UP BOUND QMUNI7      1.1e+10
 LO BOUND QMUNI8 -0.000493571
 UP BOUND QMUNI8      1.1e+10
 LO BOUND QMUNI9 -0.000574034
 UP BOUND QMUNI9      1.1e+10
ENDATA
